
List of user-set options:

                                    Name   Value                used
                           compl_inf_tol = 1                     yes
                         constr_viol_tol = 1                     yes
                            dual_inf_tol = 1000                  yes
                           linear_solver = ma97                  yes
                              ma86_small = 1e-30                  no
                                  ma86_u = 0.0001                 no
                              ma97_order = best                  yes
                              ma97_small = 1e-30                 yes
                            ma97_switch1 = at_start              yes
                            ma97_switch2 = od_hd_reuse           yes
                                  ma97_u = 1e-06                 yes
                               ma97_umax = 0.5                   yes
                                max_iter = 1000                  yes
                    max_refinement_steps = 20                    yes
                    min_refinement_steps = 5                     yes
                                 mu_init = 1e-06                 yes
           mu_superlinear_decrease_power = 1.25                  yes
                   nlp_scaling_min_value = 1e-08                 yes
                        option_file_name = Preset_Case_51_pf.opt  yes
                             output_file = ./tmp/Preset_Case_51_pf.output  yes
                      print_user_options = yes                   yes
        required_infeasibility_reduction = 1                      no
                                     tol = 1e-08                 yes
                   warm_start_bound_frac = 1e-20                 yes
                   warm_start_bound_push = 1e-20                 yes
                   warm_start_init_point = yes                   yes
              warm_start_mult_bound_push = 1e-20                 yes
                warm_start_mult_init_max = 1e+40                 yes
             warm_start_slack_bound_frac = 1e-20                 yes
             warm_start_slack_bound_push = 1e-20                 yes

******************************************************************************
This program contains Ipopt, a library for large-scale nonlinear optimization.
 Ipopt is released as open source code under the Eclipse Public License (EPL).
         For more information visit http://projects.coin-or.org/Ipopt
******************************************************************************

This is Ipopt version 3.12.10, running with linear solver ma97.

Number of nonzeros in equality constraint Jacobian...:   123442
Number of nonzeros in inequality constraint Jacobian.:      213
Number of nonzeros in Lagrangian Hessian.............:    49069

Total number of variables............................:    31591
                     variables with only lower bounds:    12912
                variables with lower and upper bounds:    15130
                     variables with only upper bounds:        0
Total number of equality constraints.................:    31483
Total number of inequality constraints...............:       25
        inequality constraints with only lower bounds:        4
   inequality constraints with lower and upper bounds:        0
        inequality constraints with only upper bounds:       21

iter    objective    inf_pr   inf_du lg(mu)  ||d||  lg(rg) alpha_du alpha_pr  ls
   0 -5.0322968e+00 4.02e-03 1.02e+00  -6.0 0.00e+00    -  0.00e+00 0.00e+00   0
   1 -5.0318031e+00 6.90e-03 1.02e+00  -6.0 5.40e+05    -  1.12e-04 2.78e-05h  6
   2 -5.0338774e+00 6.92e-03 1.63e+00  -6.0 1.11e+04    -  8.96e-03 1.90e-03h  1
   3 -5.0495220e+00 9.97e-01 5.71e+00  -6.0 1.44e+04    -  1.21e-02 1.44e-02f  1
   4 -5.0921531e+00 1.50e+01 4.74e+01  -6.0 1.94e+04    -  6.75e-03 4.03e-02f  1
   5 -5.1398209e+00 1.44e+01 1.00e+02  -6.0 1.03e+04    -  2.23e-01 4.87e-02f  1
   6 -5.2141704e+00 1.87e+01 2.30e+02  -6.0 1.05e+04    -  1.67e-01 8.35e-02h  1
   7 -5.4815197e+00 3.10e+01 1.82e+03  -6.0 8.52e+03    -  2.70e-01 3.56e-01h  1
   8 -5.4835789e+00 3.08e+01 1.80e+03  -6.0 3.93e+03    -  5.78e-02 7.68e-03h  1
   9 -5.4834015e+00 3.07e+01 1.80e+03  -6.0 5.55e+00  -4.0 5.87e-02 3.69e-03h  1
iter    objective    inf_pr   inf_du lg(mu)  ||d||  lg(rg) alpha_du alpha_pr  ls
  10 -5.5629658e+00 2.94e+01 1.70e+03  -6.0 3.88e+03    -  3.74e-01 3.02e-01f  1
  11 -5.5618195e+00 2.86e+01 1.65e+03  -6.0 6.35e+00  -4.5 1.95e-01 2.73e-02h  1
  12 -5.6001012e+00 2.57e+01 1.33e+03  -6.0 1.97e+03    -  5.43e-01 3.06e-01h  1
  13 -5.5980829e+00 2.41e+01 1.25e+03  -6.0 1.28e+01  -5.0 2.61e-01 6.42e-02h  1
  14 -5.6003544e+00 2.33e+01 1.21e+03  -6.0 2.39e+03    -  3.28e-01 3.50e-02h  1
  15 -5.6208422e+00 1.94e+01 8.95e+02  -6.0 1.55e+03    -  5.38e-02 3.35e-01h  1
  16 -5.6186379e+00 1.72e+01 7.93e+02  -6.0 2.20e+01  -5.4 1.81e-01 1.14e-01h  1
  17 -5.6116663e+00 3.67e+00 1.73e+02  -6.0 7.79e+01  -5.9 1.30e-01 7.89e-01h  1
  18 -5.6184202e+00 1.57e-01 2.74e+01  -6.0 4.78e+01  -6.4 2.93e-01 1.00e+00h  1
  19 -5.6184942e+00 1.53e-01 1.71e+01  -6.0 9.81e+01  -6.9 6.77e-01 2.29e-02h  1
iter    objective    inf_pr   inf_du lg(mu)  ||d||  lg(rg) alpha_du alpha_pr  ls
  20 -5.6263141e+00 1.31e+00 3.85e+01  -6.0 2.36e+02  -7.3 8.82e-01 8.83e-01f  1
  21 -5.6253121e+00 3.64e-01 5.79e+03  -6.0 1.85e+02  -7.8 2.55e-01 7.70e-01h  1
  22 -5.6266590e+00 8.37e-02 4.47e+00  -6.0 5.35e+01  -6.5 1.00e+00 1.00e+00h  1
  23 -5.6316785e+00 6.61e-01 4.65e+00  -6.0 1.50e+02  -7.0 1.00e+00 1.00e+00h  1
  24 -5.6374416e+00 1.18e+00 4.53e+01  -6.0 1.97e+03  -7.4 1.08e-01 7.08e-02h  1
  25 -5.6496342e+00 1.19e+00 2.46e+02  -6.0 2.04e+02  -7.0 1.00e+00 1.00e+00h  1
  26 -5.6503441e+00 1.18e+00 2.81e+01  -6.0 1.27e+03  -6.6 1.49e-02 1.29e-02h  1
  27 -5.6549424e+00 1.03e+00 2.20e+04  -6.0 2.85e+02  -7.1 3.79e-01 1.99e-01h  1
  28 -5.6571941e+00 9.56e-01 1.14e+05  -6.0 3.59e+02  -7.5 3.22e-01 8.35e-02h  1
  29 -5.6793501e+00 1.38e+00 2.19e+03  -6.0 2.22e+02  -7.1 1.00e+00 1.00e+00h  1
iter    objective    inf_pr   inf_du lg(mu)  ||d||  lg(rg) alpha_du alpha_pr  ls
  30 -5.6866103e+00 1.25e+00 1.57e+05  -6.0 4.03e+02  -7.6 2.54e-01 1.50e-01h  1
  31 -5.6868026e+00 1.25e+00 3.53e+05  -6.0 1.35e+03  -8.1 1.73e-01 2.69e-03h  1
  32 -5.6881802e+00 1.22e+00 1.30e+08  -6.0 4.29e+03  -7.6 1.77e-04 2.41e-02h  1
  33 -5.6987733e+00 9.87e-01 1.02e+08  -6.0 1.19e+03    -  1.65e-02 2.18e-01h  1
  34 -5.7000344e+00 9.43e-01 9.70e+07  -6.0 1.55e+03    -  1.12e-01 4.48e-02h  1
  35r-5.7000344e+00 9.43e-01 1.00e+03  -0.0 0.00e+00  -8.1 0.00e+00 1.03e-07R  2
  36r-5.7015780e+00 9.41e-01 1.00e+03  -0.0 8.58e+03    -  6.67e-06 1.83e-06f  1
  37 -5.7014750e+00 9.13e-01 7.82e+04  -6.0 5.88e+01    -  7.87e-02 3.03e-02h  1
  38 -5.7007156e+00 7.12e-01 8.56e+05  -6.0 7.48e+00    -  3.03e-02 2.20e-01h  1
  39 -5.6997079e+00 4.39e-01 5.28e+05  -6.0 5.89e+00    -  4.68e-01 3.84e-01h  1
iter    objective    inf_pr   inf_du lg(mu)  ||d||  lg(rg) alpha_du alpha_pr  ls
  40 -5.6989144e+00 2.18e-01 2.62e+05  -6.0 3.52e+00    -  7.59e-01 5.03e-01h  1
  41 -5.6992062e+00 1.48e-01 1.78e+05  -6.0 1.66e+00    -  8.47e-01 3.20e-01h  1
  42 -5.7034586e+00 7.12e-03 2.41e+01  -6.0 4.26e+00    -  7.53e-01 1.00e+00h  1
  43 -5.7035612e+00 4.77e-03 2.04e+01  -6.0 1.75e+01    -  9.58e-01 3.37e-01h  1
  44 -5.7120885e+00 4.13e-01 8.10e+00  -6.0 1.90e+02    -  8.41e-01 5.95e-01f  1
  45 -5.7169463e+00 4.59e-01 9.15e+00  -6.0 3.12e+02    -  7.03e-01 9.74e-01h  1
  46 -5.7163441e+00 3.48e-01 4.94e+01  -6.0 5.54e+02    -  7.17e-01 9.32e-01h  1
  47 -5.7157162e+00 3.00e-01 6.30e+00  -6.0 3.11e+02    -  9.67e-01 8.52e-01H  1
  48 -5.7157204e+00 5.14e-01 9.27e+00  -6.0 1.82e+04    -  2.76e-02 5.29e-03h  5
  49 -5.7155323e+00 6.61e-02 2.32e-01  -6.0 5.39e+01  -8.6 1.00e+00 1.00e+00h  1
iter    objective    inf_pr   inf_du lg(mu)  ||d||  lg(rg) alpha_du alpha_pr  ls
  50 -5.7155279e+00 1.48e-03 1.15e-01  -6.0 1.56e+02  -9.1 1.00e+00 1.00e+00H  1
  51 -5.7155489e+00 8.10e-02 1.73e+00  -6.0 4.72e+02  -9.6 8.56e-01 1.00e+00H  1
  52 -5.7155579e+00 5.71e-01 2.31e+01  -6.0 1.83e+03 -10.0 7.37e-01 8.17e-02h  3
  53 -5.7155641e+00 7.40e-01 2.86e+01  -6.0 1.33e+04 -10.5 3.57e-02 6.67e-03h  4
  54 -5.7155703e+00 8.80e-01 6.75e+01  -6.0 2.24e+03 -10.1 1.00e+00 3.93e-02h  4
  55 -5.7156978e+00 6.14e+01 1.64e+01  -6.0 1.87e+04    -  3.85e-02 8.85e-02h  1
  56 -5.7156917e+00 1.32e+01 9.62e+00  -6.0 8.77e+02    -  9.11e-01 1.00e+00h  1
  57 -5.7156454e+00 4.43e+00 2.54e+00  -6.0 4.72e+02    -  1.00e+00 1.00e+00h  1
  58 -5.7156244e+00 2.32e-01 2.32e-01  -6.0 1.14e+02    -  1.00e+00 1.00e+00h  1
  59 -5.7156242e+00 3.74e-04 2.63e-04  -6.0 4.18e+00    -  1.00e+00 1.00e+00h  1
iter    objective    inf_pr   inf_du lg(mu)  ||d||  lg(rg) alpha_du alpha_pr  ls
  60 -5.7156242e+00 6.40e-10 7.17e-10  -6.0 6.14e-03    -  1.00e+00 1.00e+00h  1
  61 -5.7158103e+00 5.77e+00 4.67e+01  -7.5 7.31e+02    -  6.34e-01 7.95e-01f  1
  62 -5.7157849e+00 1.28e+00 2.32e+01  -7.5 1.61e+02    -  6.90e-01 8.39e-01h  1
  63 -5.7157739e+00 4.02e-02 4.41e-02  -7.5 3.85e+01    -  1.00e+00 1.00e+00h  1
  64 -5.7157737e+00 2.66e-03 3.17e-05  -7.5 3.06e+00    -  1.00e+00 1.00e+00h  1
  65 -5.7157737e+00 2.31e-08 4.07e-10  -7.5 9.24e-03    -  1.00e+00 1.00e+00h  1
  66 -5.7157753e+00 6.61e-03 8.74e-01  -9.0 2.34e+01    -  9.21e-01 8.26e-01h  1
  67 -5.7157756e+00 2.91e-04 1.08e-03  -9.0 4.04e+00    -  1.00e+00 1.00e+00h  1
  68 -5.7157756e+00 3.81e-09 3.81e-09  -9.0 7.07e-03    -  1.00e+00 1.00e+00h  1

Number of Iterations....: 68

                                   (scaled)                 (unscaled)
Objective...............:  -4.4654496683620319e+00   -5.7157755755034012e+00
Dual infeasibility......:   3.8086511834531444e-09    4.8750735148200252e-09
Constraint violation....:   3.8118674883236281e-09    3.8118674883236281e-09
Complementarity.........:   1.1302276010188423e-09    1.4466913293041182e-09
Overall NLP error.......:   3.8118674883236281e-09    4.8750735148200252e-09


Number of objective function evaluations             = 103
Number of objective gradient evaluations             = 69
Number of equality constraint evaluations            = 103
Number of inequality constraint evaluations          = 103
Number of equality constraint Jacobian evaluations   = 70
Number of inequality constraint Jacobian evaluations = 70
Number of Lagrangian Hessian evaluations             = 68
Total CPU secs in IPOPT (w/o function evaluations)   =    151.373
Total CPU secs in NLP function evaluations           =      2.867

EXIT: Optimal Solution Found.
